p tdp 76 75
56 61
5 47
70 71
26 49
19 25
20 18
7 1
35 29
75 10
60 73
3 20
38 49
27 72
31 76
66 39
67 32
44 68
74 14
28 12
37 19
22 9
7 46
56 64
41 20
20 42
16 51
44 51
46 45
48 18
15 76
18 47
63 39
66 55
57 36
56 32
36 68
60 72
53 12
37 8
23 34
21 43
55 46
24 72
4 20
13 59
28 50
22 13
30 34
17 52
33 40
63 2
4 21
11 54
62 71
69 44
9 37
11 35
34 12
1 52
42 62
74 41
53 61
75 50
6 31
60 33
69 73
7 65
26 3
9 3
29 76
61 48
17 54
58 28
29 33
3 17
